(set-info :smt-lib-version 2.6)
(set-logic QF_UFLRA)
(set-info :source |
MathSat group

|)
(set-info :category "random")
(set-info :status unsat)
(declare-fun x0 () Real)
(declare-fun x1 () Real)
(declare-fun x2 () Real)
(declare-fun x3 () Real)
(declare-fun x4 () Real)
(declare-fun x5 () Real)
(declare-fun x6 () Real)
(declare-fun x7 () Real)
(declare-fun x8 () Real)
(declare-fun x9 () Real)
(declare-fun x10 () Real)
(declare-fun x11 () Real)
(declare-fun x12 () Real)
(declare-fun x13 () Real)
(declare-fun x14 () Real)
(declare-fun x15 () Real)
(declare-fun x16 () Real)
(declare-fun x17 () Real)
(declare-fun x18 () Real)
(declare-fun x19 () Real)
(declare-fun x20 () Real)
(declare-fun x21 () Real)
(declare-fun x22 () Real)
(declare-fun x23 () Real)
(declare-fun x24 () Real)
(declare-fun x25 () Real)
(declare-fun x26 () Real)
(declare-fun x27 () Real)
(declare-fun x28 () Real)
(declare-fun x29 () Real)
(declare-fun f0_1 (Real) Real)
(declare-fun f0_2 (Real Real) Real)
(declare-fun f0_3 (Real Real Real) Real)
(declare-fun f0_4 (Real Real Real Real) Real)
(declare-fun P0 () Bool)
(declare-fun P1 () Bool)
(declare-fun P2 () Bool)
(declare-fun P3 () Bool)
(declare-fun P4 () Bool)
(declare-fun P5 () Bool)
(declare-fun P6 () Bool)
(declare-fun P7 () Bool)
(declare-fun P8 () Bool)
(declare-fun P9 () Bool)
(declare-fun P10 () Bool)
(declare-fun P11 () Bool)
(declare-fun P12 () Bool)
(declare-fun P13 () Bool)
(declare-fun P14 () Bool)
(declare-fun P15 () Bool)
(declare-fun P16 () Bool)
(declare-fun P17 () Bool)
(declare-fun P18 () Bool)
(declare-fun P19 () Bool)
(declare-fun P20 () Bool)
(declare-fun P21 () Bool)
(declare-fun P22 () Bool)
(declare-fun P23 () Bool)
(declare-fun P24 () Bool)
(declare-fun P25 () Bool)
(declare-fun P26 () Bool)
(declare-fun P27 () Bool)
(declare-fun P28 () Bool)
(declare-fun P29 () Bool)
(assert (let ((?v_61 (* 6 x4))) (let ((?v_91 (distinct (- (- (* 17 x19) ?v_61) (* 23 x3)) 1)) (?v_20 (* 26 x11)) (?v_80 (* 15 x9))) (let ((?v_1 (distinct (+ (- ?v_80 (* 37 x21)) (* 42 x22)) 21)) (?v_157 (< (- (+ (* 37 x19) (* 15 x4)) (* 2 x18)) 3)) (?v_14 (* 22 x12))) (let ((?v_21 (< (- (- (* 9 x3) ?v_14) (* 28 x1)) 5)) (?v_12 (< (- (+ (* 20 x3) (* 35 x22)) (* 7 x5)) 15)) (?v_24 (<= (- (- (* 2 x7) ?v_14) (* 18 x19)) 23)) (?v_3 (= (f0_2 x29 x11) x11)) (?v_68 (= (f0_1 x8) (f0_2 x15 x18))) (?v_16 (distinct (f0_1 x3) x18)) (?v_6 (= (f0_2 x12 x18) (f0_1 x21))) (?v_76 (distinct (f0_1 x18) x10)) (?v_37 (= (f0_1 x17) (f0_2 x0 x6))) (?v_53 (distinct (f0_2 x11 x0) (f0_2 x21 x16))) (?v_86 (f0_1 x26))) (let ((?v_109 (distinct ?v_86 (f0_2 x26 x13))) (?v_47 (= x15 (f0_2 x0 x7))) (?v_52 (distinct x15 (f0_2 x23 x16))) (?v_55 (distinct (f0_2 x25 x10) (f0_2 x3 x15))) (?v_17 (distinct x16 (f0_1 x16))) (?v_0 (= x28 (f0_2 x25 x18))) (?v_13 (f0_1 x0))) (let ((?v_29 (= ?v_13 (f0_2 x24 x28))) (?v_153 (distinct (f0_2 x26 x15) x16)) (?v_9 (= x26 (f0_2 x17 x26))) (?v_56 (f0_1 x28))) (let ((?v_108 (= ?v_56 (f0_2 x1 x8))) (?v_4 (distinct ?v_13 x8)) (?v_42 (distinct (f0_2 x19 x4) (f0_1 x15))) (?v_85 (distinct x6 x8)) (?v_89 (= (f0_2 x9 x9) (f0_1 x22))) (?v_123 (distinct x4 (f0_2 x17 x28))) (?v_64 (distinct (f0_1 x5) x7)) (?v_45 (distinct (f0_2 x20 x24) (f0_2 x14 x2))) (?v_98 (= x10 (f0_1 x4))) (?v_30 (distinct (f0_2 x5 x24) x11)) (?v_119 (distinct ?v_86 (f0_1 x19))) (?v_72 (= x10 (f0_2 x24 x6))) (?v_125 (= ?v_56 (f0_2 x3 x23))) (?v_27 (= (f0_1 x23) (f0_1 x25))) (?v_70 (not P17)) (?v_122 (not P22)) (?v_84 (not ?v_1)) (?v_69 (not P21)) (?v_28 (not P15)) (?v_82 (not ?v_3)) (?v_2 (not P2)) (?v_57 (not ?v_21))) (let ((?v_11 (not ?v_4)) (?v_7 (not ?v_37)) (?v_65 (not ?v_119)) (?v_79 (not P0)) (?v_114 (not P26)) (?v_96 (not ?v_6)) (?v_34 (not ?v_16)) (?v_19 (not ?v_9)) (?v_110 (not ?v_72)) (?v_38 (not ?v_12)) (?v_94 (not ?v_24)) (?v_43 (not ?v_17)) (?v_101 (not P3)) (?v_87 (not ?v_53)) (?v_22 (not P14)) (?v_50 (not P23)) (?v_113 (not P13)) (?v_46 (not ?v_108)) (?v_35 (not ?v_30)) (?v_145 (not ?v_64)) (?v_44 (not P27)) (?v_51 (not P16)) (?v_71 (not ?v_47)) (?v_36 (not ?v_157)) (?v_49 (not P19)) (?v_111 (not P8)) (?v_132 (not ?v_52)) (?v_99 (not ?v_85)) (?v_133 (not ?v_29)) (?v_140 (not P18)) (?v_92 (not P9)) (?v_142 (not P10)) (?v_62 (not P6)) (?v_93 (not ?v_125)) (?v_66 (not P1)) (?v_81 (not P28)) (?v_88 (not ?v_68)) (?v_152 (not ?v_27)) (?v_120 (not ?v_45)) (?v_100 (not P11)) (?v_104 (not P20)) (?v_107 (not P12)) (?v_126 (not ?v_91)) (?v_112 (not P25)) (?v_148 (not ?v_42)) (?v_131 (not ?v_55)) (?v_129 (not ?v_123)) (?v_118 (not ?v_153)) (?v_124 (not ?v_89)) (?v_141 (not P5)) (?v_147 (not P29)) (?v_117 (not ?v_98)) (?v_156 (not ?v_76)) (?v_137 (not ?v_109)) (?v_151 (not ?v_0)) (?v_135 (not P7)) (?v_144 (not P4))) (let ((?v_150 (or ?v_45 ?v_148)) (?v_154 (not P24)) (?v_63 (< (+ (* 4 x11) (* 4 x28) (* 41 x4)) 31))) (let ((?v_138 (not ?v_63)) (?v_134 (< (+ (* 19 x10) (* 41 x3) (* 29 x20)) 8))) (let ((?v_146 (not ?v_134)) (?v_41 (<= (- (- (* (- 3) x14) (* 36 x23)) (* 17 x28)) 35)) (?v_10 (<= (- (- (* (- 10) x3) 0) (* 18 x12)) (- 28))) (?v_33 (<= (- (- (* 5 x24) (* 25 x11)) (* 12 x24)) (- 32))) (?v_5 (< (- (- (* 6 x23) (* 7 x2)) ?v_61) (- 20))) (?v_8 (<= (+ (* 37 x11) (* 11 x2)) (- 35))) (?v_25 (< (+ (- (* (- 37) x28) (* 32 x18)) (* 34 x11)) (- 25)))) (let ((?v_48 (not ?v_5)) (?v_103 (< (- (- (* (- 16) x1) (* 30 x27)) (* 18 x9)) (- 11)))) (let ((?v_26 (not ?v_103)) (?v_39 (< (- (- (* 40 x10) (* 9 x5)) (* 20 x8)) (- 39)))) (let ((?v_97 (not ?v_39)) (?v_77 (not ?v_10)) (?v_15 (< (- (- (* (- 30) x0) (* 14 x16)) (* 11 x21)) (- 20)))) (let ((?v_67 (not ?v_15)) (?v_78 (< (- (- (* 15 x22) (* 20 x25)) (* 16 x29)) (- 6)))) (let ((?v_23 (not ?v_78)) (?v_18 (< (+ (- ?v_20 (* 11 x9)) (* 8 x8)) (- 1)))) (let ((?v_32 (not ?v_18)) (?v_40 (< (+ (* (- 21) x26) (* 11 x24) (* 5 x5)) (- 4)))) (let ((?v_74 (not ?v_40)) (?v_31 (<= (+ (* (- 9) x5) (* 39 x6) (* 17 x8)) (- 30)))) (let ((?v_73 (not ?v_31)) (?v_54 (= (- (+ (* (- 29) x9) ?v_20) (* 36 x5)) (- 43)))) (let ((?v_60 (not ?v_54)) (?v_95 (< (+ (- (* (- 31) x12) (* 40 x28)) (* 19 x6)) (- 14))) (?v_102 (not ?v_33)) (?v_59 (< (- (+ (* 12 x27) (* 24 x2)) (* 36 x26)) (- 19))) (?v_58 (= (+ (- (* (- 19) x14) (* 29 x14)) (* 13 x5)) 5))) (let ((?v_75 (not ?v_58)) (?v_106 (not ?v_59)) (?v_83 (< (- (- (* (- 18) x13) (* 18 x17)) (* 24 x6)) 16)) (?v_130 (not ?v_8)) (?v_90 (<= (+ (* 25 x22) (* 26 x27) (* 21 x14)) (- 28))) (?v_116 (< (- (+ (* (- 26) x20) (* 5 x18)) ?v_80) (- 12)))) (let ((?v_136 (not ?v_116)) (?v_105 (< (- (+ (* (- 38) x22) (* 6 x28)) (* 37 x29)) (- 7)))) (let ((?v_121 (not ?v_105)) (?v_139 (not ?v_41)) (?v_127 (not ?v_95)) (?v_115 (<= (- (+ (* (- 1) x7) (* 34 x24)) (* 39 x26)) 36))) (let ((?v_128 (not ?v_115)) (?v_143 (not ?v_83)) (?v_149 (not ?v_90)) (?v_155 (not ?v_25))) (and (and (and (and (and (and (and (and (and (and (and (and (and (and (and (and (and (and (and (and (and (and (and (and (and (and (and (and (and (and (and (and (and (and (and (and (and (and (and (and (and (and (and (and (and (and (and (and (and (and (and (and (and (and (and (and (and (and (and (and (and (and (and (and (and (and (and (and (and (and (and (and (and (and (and (and (and (and (and (and (and (and (and (and (and (and (and (and (and (and (and (and (and (and (and (and (and (and (and (and (and (and (and (and (and (and (and (and (and (and (and (and (and (and (and (and (and (and (and (and (and (and (and (and (and (and (and (and (and (and (and (and (and (and (and (and (and (and (and (and (and (and (and (and (and (and (and (and (and (and (and (and (and (and (and (and (and (and (and (and (and (and (and (and (and (and (and (and (and (and (and (and (and (and (and (and (and (and (and (and (and (and (and (and (and (and (and (and (and (and (and (and (and (and (and (and (and (and (and (and (and (and (and (and (and (and (and (and (and (and (and (and (and (and (and (and (and (and (and (and (and (and (and (and (and (and (and (and (and (and (and (and (and (and (and (and (and (and (and (and (and (and (and (and (and (and (and (and (and (and (and (and (and (and (and (and (and (and (and (and (and (and (and (and (and (and (and (and (and (and (and (and (and (and (and (and (and (and (and (and (and (and (and (and (and (and (and (and (and (and (and (and (and (and (and (and (and (and (and (and (and (and (and (and (and (and (and (and (and (and (and (and (and (and (and (and (and (and (and (and (and (and (and (and (and (and (and (and (and (and (and (and (and (and (and (and (and (and (and (and (and (and (and (and (and (and (and (and (and (and (and (and (and (and (and (and (and (and (and (and (and (and (and (and (and (and (and (and (and (and (and (and (and (and (and (and (and (and (and (and (and (and (and (and (and (and (and (and (and (and (and (and (and (and (and (and (and (and (and (and (and (and (and (and (and (and (and (and (and (and (and (and (and (and (and (and (and (and (and (and (and (and (and (and (and (and (and (and (and (and (and (and (and (and (and (and (and (and (and (and (and (and (and (and (and (and (and (and (and (or (or ?v_41 ?v_10) ?v_70) (or (or ?v_122 ?v_84) ?v_69)) (or (or P10 P11) ?v_28)) (or (or ?v_0 P5) ?v_82)) (or (or P18 ?v_2) ?v_0)) (or (or ?v_1 ?v_12) ?v_57)) (or (or ?v_33 ?v_5) ?v_2)) (or (or ?v_8 ?v_11) P20)) (or (or ?v_9 ?v_3) ?v_25)) (or (or ?v_7 ?v_65) P12)) (or (or ?v_79 P6) ?v_6)) (or (or P26 ?v_114) ?v_4)) (or (or ?v_48 ?v_96) ?v_26)) (or (or ?v_34 ?v_7) ?v_8)) (or (or ?v_19 ?v_42) ?v_1)) (or (or ?v_97 ?v_27) ?v_89)) (or (or P10 ?v_110) ?v_17)) (or (or P14 P4) ?v_77)) (or (or P5 ?v_55) P16)) (or (or P12 ?v_9) P13)) (or (or ?v_10 P9) ?v_68)) (or (or ?v_11 ?v_67) ?v_23)) (or (or ?v_3 ?v_7) ?v_12)) (or (or ?v_29 ?v_38) ?v_18)) (or (or ?v_94 ?v_15) ?v_16)) (or (or ?v_2 ?v_9) P11)) (or (or ?v_43 ?v_101) ?v_87)) (or (or ?v_22 ?v_4) ?v_50)) (or (or ?v_32 ?v_10) ?v_113)) (or (or ?v_46 ?v_74) ?v_19)) (or (or ?v_35 ?v_18) ?v_73)) (or (or ?v_145 ?v_60) ?v_21)) (or (or ?v_17 P8) ?v_22)) (or (or ?v_44 ?v_23) ?v_24)) (or (or ?v_4 ?v_51) ?v_71)) (or (or ?v_7 ?v_36) ?v_15)) (or (or ?v_25 ?v_26) ?v_27)) (or (or ?v_28 ?v_29) ?v_26)) (or (or ?v_30 P23) ?v_31)) (or (or ?v_32 P29) P11)) (or (or ?v_15 ?v_95) ?v_33)) (or (or ?v_1 ?v_76) ?v_34)) (or (or ?v_35 ?v_45) ?v_36)) (or (or ?v_37 ?v_29) ?v_38)) (or (or ?v_49 ?v_5) ?v_19)) (or (or P21 P9) ?v_111)) (or (or P13 ?v_39) ?v_40)) (or (or ?v_35 ?v_36) ?v_41)) (or (or ?v_132 ?v_102) ?v_41)) (or (or P22 ?v_42) ?v_99)) (or (or ?v_43 ?v_44) P7)) (or (or ?v_45 ?v_22) ?v_17)) (or (or ?v_133 P26) ?v_140)) (or (or ?v_17 ?v_46) ?v_19)) (or (or ?v_47 P12) ?v_9)) (or (or ?v_92 ?v_48) ?v_28)) (or (or ?v_44 ?v_49) ?v_50)) (or (or ?v_142 ?v_42) ?v_43)) (or (or ?v_30 ?v_51) ?v_3)) (or (or ?v_6 ?v_62) P20)) (or (or ?v_28 ?v_23) P19)) (or (or ?v_45 ?v_59) ?v_12)) (or (or ?v_52 ?v_53) ?v_54)) (or (or ?v_55 ?v_25) ?v_93)) (or (or ?v_57 ?v_66) ?v_44)) (or (or ?v_58 ?v_75) ?v_37)) (or (or P16 ?v_63) ?v_106)) (or (or ?v_60 ?v_83) ?v_59)) (or (or ?v_91 ?v_62) ?v_138)) (or (or ?v_64 ?v_65) ?v_2)) (or (or ?v_17 ?v_52) ?v_66)) (or (or P3 ?v_67) ?v_81)) (or (or ?v_88 ?v_69) ?v_130)) (or (or P15 ?v_0) ?v_70)) (or (or ?v_22 ?v_18) ?v_152)) (or (or P15 ?v_49) ?v_71)) (or (or P22 ?v_72) P21)) (or (or ?v_68 ?v_90) ?v_37)) (or (or P10 ?v_22) ?v_7)) (or (or ?v_27 ?v_73) ?v_74)) (or (or ?v_52 ?v_15) ?v_66)) (or (or P3 ?v_26) P25)) (or (or ?v_75 ?v_134) ?v_120)) (or (or ?v_35 ?v_67) P5)) (or (or ?v_47 ?v_25) ?v_12)) (or (or ?v_76 ?v_58) ?v_11)) (or (or ?v_77 ?v_5) ?v_44)) (or (or ?v_78 ?v_100) P12)) (or (or ?v_79 ?v_104) ?v_2)) (or (or ?v_67 ?v_136) ?v_81)) (or (or ?v_82 ?v_65) ?v_27)) (or (or ?v_11 ?v_19) ?v_83)) (or (or ?v_4 ?v_84) ?v_85)) (or (or ?v_57 P17) P16)) (or (or ?v_18 ?v_121) ?v_109)) (or (or ?v_87 ?v_88) ?v_107)) (or (or ?v_89 ?v_90) ?v_126)) (or (or P18 ?v_90) ?v_23)) (or (or ?v_88 ?v_6) ?v_18)) (or (or ?v_139 P16) ?v_4)) (or (or ?v_23 P14) ?v_46)) (or (or ?v_84 P12) ?v_29)) (or (or ?v_31 ?v_92) ?v_93)) (or (or ?v_112 ?v_94) ?v_98)) (or (or ?v_34 ?v_22) ?v_23)) (or (or ?v_127 ?v_54) ?v_96)) (or (or ?v_97 ?v_98) ?v_99)) (or (or ?v_100 ?v_47) ?v_101)) (or (or P16 ?v_102) ?v_31)) (or (or ?v_103 ?v_4) P3)) (or (or ?v_97 ?v_104) ?v_3)) (or (or ?v_78 ?v_17) ?v_71)) (or (or ?v_105 P5) ?v_43)) (or (or ?v_148 ?v_71) ?v_5)) (or (or ?v_28 ?v_50) ?v_8)) (or (or P12 ?v_22) ?v_131)) (or (or ?v_129 ?v_33) ?v_106)) (or (or ?v_45 ?v_7) ?v_107)) (or (or P16 P5) ?v_118)) (or (or P11 ?v_115) ?v_44)) (or (or ?v_124 ?v_42) ?v_108)) (or (or ?v_94 ?v_106) ?v_109)) (or (or ?v_49 P15) ?v_40)) (or (or ?v_141 ?v_110) P2)) (or (or ?v_102 P1) ?v_73)) (or (or ?v_108 ?v_111) ?v_66)) (or (or ?v_90 P9) P23)) (or (or ?v_73 ?v_147) ?v_12)) (or (or P16 ?v_82) ?v_112)) (or (or ?v_117 ?v_53) ?v_113)) (or (or ?v_41 ?v_22) P5)) (or (or ?v_37 P4) ?v_32)) (or (or P24 ?v_4) P12)) (or (or ?v_32 ?v_8) P2)) (or (or ?v_76 ?v_41) P16)) (or (or ?v_64 P27) ?v_62)) (or (or ?v_114 ?v_37) ?v_115)) (or (or ?v_6 P14) P26)) (or (or ?v_96 ?v_59) ?v_48)) (or (or ?v_78 ?v_12) ?v_116)) (or (or P21 ?v_117) P18)) (or (or ?v_35 ?v_0) ?v_90)) (or (or ?v_25 ?v_118) ?v_15)) (or (or ?v_23 ?v_2) P29)) (or (or ?v_90 ?v_119) ?v_120)) (or (or ?v_87 ?v_105) ?v_73)) (or (or P11 ?v_156) ?v_83)) (or (or ?v_92 P16) ?v_137)) (or (or ?v_117 ?v_105) ?v_70)) (or (or ?v_96 ?v_98) ?v_113)) (or (or ?v_72 ?v_31) ?v_113)) (or (or ?v_102 P5) P1)) (or (or ?v_53 P9) ?v_63)) (or (or ?v_32 ?v_4) ?v_121)) (or (or ?v_12 ?v_62) ?v_47)) (or (or ?v_10 ?v_60) ?v_40)) (or (or ?v_54 ?v_100) P9)) (or (or ?v_79 ?v_36) P16)) (or (or P22 P19) ?v_0)) (or (or ?v_79 ?v_109) ?v_33)) (or (or ?v_10 ?v_117) ?v_58)) (or (or P26 ?v_37) P8)) (or (or ?v_54 ?v_151) ?v_52)) (or (or ?v_70 ?v_48) P13)) (or (or ?v_42 ?v_118) ?v_120)) (or (or ?v_91 ?v_83) P19)) (or (or ?v_106 P18) P15)) (or (or ?v_122 ?v_91) P9)) (or (or ?v_123 ?v_30) ?v_36)) (or (or P11 P28) P25)) (or (or ?v_11 ?v_102) ?v_77)) (or (or ?v_47 ?v_104) ?v_18)) (or (or ?v_69 ?v_64) ?v_124)) (or (or ?v_21 ?v_109) ?v_71)) (or (or ?v_125 ?v_126) P26)) (or (or ?v_127 P1) ?v_36)) (or (or ?v_54 ?v_128) ?v_112)) (or (or ?v_28 ?v_41) ?v_52)) (or (or ?v_85 ?v_121) ?v_119)) (or (or ?v_135 ?v_104) ?v_128)) (or (or ?v_3 ?v_76) ?v_77)) (or (or ?v_129 P19) ?v_99)) (or (or ?v_130 ?v_4) ?v_87)) (or (or ?v_93 ?v_35) ?v_105)) (or (or ?v_76 ?v_72) ?v_99)) (or (or ?v_131 ?v_66) ?v_132)) (or (or ?v_133 ?v_71) ?v_131)) (or (or ?v_28 ?v_75) ?v_146)) (or (or ?v_135 ?v_112) ?v_33)) (or (or ?v_116 ?v_125) ?v_143)) (or (or ?v_112 ?v_16) P4)) (or (or P28 ?v_107) ?v_59)) (or (or ?v_92 ?v_62) ?v_136)) (or (or ?v_34 ?v_39) ?v_2)) (or (or ?v_7 ?v_8) ?v_85)) (or (or ?v_53 P20) P4)) (or (or ?v_144 ?v_65) P21)) (or (or ?v_136 ?v_21) P28)) (or (or ?v_104 ?v_33) ?v_118)) (or (or ?v_119 ?v_34) ?v_103)) (or (or ?v_2 ?v_137) ?v_124)) (or (or ?v_2 ?v_75) ?v_63)) (or (or ?v_111 ?v_10) P4)) (or (or ?v_51 ?v_43) P3)) (or (or ?v_35 ?v_138) P23)) (or (or ?v_24 ?v_53) ?v_118)) (or (or ?v_91 ?v_31) ?v_139)) (or (or ?v_2 ?v_16) ?v_28)) (or (or ?v_82 ?v_140) ?v_138)) (or (or ?v_46 ?v_139) P5)) (or (or ?v_2 ?v_33) ?v_138)) (or (or ?v_102 ?v_101) ?v_141)) (or (or P15 ?v_124) ?v_90)) (or (or ?v_90 ?v_108) ?v_44)) (or (or ?v_64 ?v_118) ?v_15)) (or (or ?v_124 ?v_122) ?v_126)) (or (or ?v_69 P7) ?v_112)) (or (or ?v_142 ?v_98) ?v_101)) (or (or P1 ?v_38) ?v_54)) (or (or ?v_143 ?v_84) ?v_141)) (or (or ?v_48 ?v_25) ?v_127)) (or (or ?v_130 ?v_132) ?v_90)) (or (or ?v_47 ?v_120) ?v_17)) (or (or ?v_113 ?v_41) ?v_50)) (or (or P13 ?v_24) ?v_34)) (or (or P5 ?v_115) ?v_16)) (or (or ?v_12 P5) ?v_9)) (or (or ?v_149 P1) ?v_2)) (or (or ?v_129 ?v_7) ?v_132)) (or (or ?v_144 ?v_97) ?v_120)) (or (or ?v_59 ?v_133) ?v_122)) (or (or ?v_84 ?v_129) ?v_101)) (or (or ?v_142 ?v_131) P7)) (or (or ?v_94 ?v_120) ?v_90)) (or (or ?v_144 ?v_87) P22)) (or (or ?v_4 ?v_34) ?v_134)) (or (or ?v_71 ?v_28) P29)) (or (or ?v_97 ?v_22) ?v_103)) (or (or ?v_52 ?v_131) ?v_145)) (or (or ?v_33 ?v_95) P13)) (or (or ?v_81 ?v_139) P2)) (or (or ?v_96 ?v_107) ?v_121)) (or (or ?v_139 ?v_96) ?v_102)) (or (or ?v_62 P14) ?v_142)) (or (or ?v_46 ?v_9) ?v_93)) (or (or ?v_29 ?v_130) ?v_106)) (or (or ?v_123 ?v_137) P26)) (or (or ?v_68 ?v_112) ?v_93)) (or (or ?v_40 ?v_146) ?v_98)) (or (or ?v_101 ?v_70) ?v_111)) (or (or P20 P21) ?v_78)) (or (or ?v_58 ?v_67) ?v_118)) (or (or ?v_35 ?v_103) ?v_120)) (or (or P19 ?v_72) ?v_111)) (or (or ?v_25 ?v_64) ?v_76)) (or (or ?v_140 ?v_35) ?v_121)) (or (or ?v_146 ?v_136) ?v_124)) (or (or ?v_58 ?v_147) ?v_47)) (or (or ?v_113 P14) ?v_125)) (or (or ?v_29 ?v_2) ?v_70)) (or (or ?v_84 P15) ?v_53)) (or (or P7 ?v_57) ?v_122)) (or (or ?v_94 ?v_2) ?v_43)) (or (or ?v_121 ?v_16) ?v_120)) (or (or ?v_84 ?v_32) ?v_73)) (or (or ?v_129 P15) ?v_49)) (or (or ?v_26 ?v_12) ?v_112)) (or (or ?v_109 P29) P5)) (or (or ?v_51 ?v_22) ?v_42)) (or (or P15 ?v_146) ?v_39)) (or (or P26 ?v_77) P14)) (or (or ?v_134 ?v_115) P26)) (or ?v_150 ?v_149)) (or (or ?v_5 ?v_148) P5)) (or (or ?v_90 ?v_81) ?v_25)) (or (or ?v_8 P19) ?v_123)) (or (or ?v_5 ?v_53) ?v_35)) (or (or ?v_144 ?v_120) P8)) (or (or ?v_119 ?v_74) ?v_25)) (or (or ?v_39 ?v_131) ?v_148)) (or (or P22 ?v_83) ?v_139)) (or (or ?v_47 P20) ?v_0)) (or (or ?v_16 ?v_101) ?v_73)) (or ?v_150 P1)) (or (or ?v_93 ?v_74) P7)) (or (or P8 ?v_31) ?v_17)) (or (or ?v_10 ?v_112) ?v_19)) (or (or ?v_21 ?v_113) ?v_23)) (or (or ?v_36 P5) ?v_84)) (or (or ?v_138 ?v_94) ?v_78)) (or (or P7 ?v_26) ?v_143)) (or (or P23 ?v_95) ?v_117)) (or (or P10 ?v_53) P15)) (or (or ?v_124 ?v_40) ?v_149)) (or (or ?v_10 P21) P4)) (or (or P8 ?v_138) ?v_12)) (or (or ?v_0 P12) ?v_18)) (or (or ?v_15 ?v_151) P16)) (or (or P28 ?v_122) ?v_89)) (or (or ?v_17 ?v_62) ?v_38)) (or (or ?v_103 ?v_51) ?v_128)) (or (or ?v_154 ?v_59) ?v_78)) (or (or ?v_72 ?v_148) ?v_68)) (or (or ?v_2 ?v_62) ?v_39)) (or (or P6 ?v_132) P18)) (or (or ?v_114 P9) ?v_70)) (or (or ?v_111 ?v_114) ?v_124)) (or (or ?v_105 ?v_152) ?v_130)) (or (or ?v_55 P18) ?v_96)) (or (or ?v_111 ?v_26) ?v_22)) (or (or ?v_84 ?v_28) P16)) (or (or ?v_102 ?v_44) ?v_27)) (or (or ?v_42 ?v_6) ?v_142)) (or (or ?v_109 ?v_122) ?v_152)) (or (or P0 ?v_26) ?v_22)) (or (or ?v_37 ?v_8) ?v_106)) (or (or ?v_111 ?v_135) P26)) (or (or ?v_17 ?v_96) P28)) (or (or ?v_79 ?v_96) ?v_67)) (or (or ?v_11 ?v_18) ?v_132)) (or (or ?v_92 ?v_116) ?v_111)) (or (or P6 ?v_153) ?v_71)) (or (or ?v_96 ?v_102) P0)) (or (or ?v_63 ?v_144) ?v_92)) (or (or ?v_38 ?v_148) ?v_142)) (or (or ?v_102 ?v_41) ?v_83)) (or (or ?v_133 ?v_22) ?v_116)) (or (or ?v_34 ?v_65) ?v_125)) (or (or P23 ?v_78) ?v_95)) (or (or ?v_40 ?v_145) ?v_146)) (or (or ?v_113 ?v_89) ?v_155)) (or (or ?v_93 ?v_85) ?v_128)) (or (or ?v_23 ?v_121) ?v_21)) (or (or ?v_69 ?v_46) ?v_154)) (or (or ?v_24 ?v_27) ?v_84)) (or (or P20 ?v_88) ?v_55)) (or (or ?v_71 ?v_92) ?v_114)) (or (or ?v_34 ?v_129) ?v_151)) (or (or ?v_99 ?v_38) ?v_83)) (or (or ?v_114 ?v_154) ?v_41)) (or (or ?v_98 ?v_27) ?v_89)) (or (or ?v_90 ?v_99) P5)) (or (or ?v_34 ?v_114) ?v_148)) (or (or ?v_109 ?v_97) ?v_0)) (or (or ?v_83 ?v_108) ?v_23)) (or (or ?v_40 ?v_78) ?v_113)) (or (or ?v_21 ?v_155) ?v_101)) (or (or ?v_38 ?v_82) ?v_115)) (or (or ?v_89 ?v_91) ?v_137)) (or (or ?v_77 P6) ?v_111)) (or (or ?v_118 ?v_18) P0)) (or (or P0 ?v_45) ?v_153)) (or (or ?v_62 ?v_9) ?v_72)) (or (or ?v_114 P11) ?v_34)) (or (or ?v_75 ?v_28) ?v_89)) (or (or P15 ?v_52) ?v_143)) (or (or ?v_38 ?v_81) ?v_156)) (or (or ?v_116 ?v_110) ?v_60)) (or (or P11 ?v_7) ?v_30)) (or (or P1 ?v_34) P5)) (or (or ?v_103 ?v_155) ?v_40)) (or (or ?v_123 ?v_8) P6)) (or (or P4 ?v_37) ?v_75)) (or (or ?v_110 ?v_19) ?v_147)) (or (or ?v_10 ?v_109) ?v_106)) (or (or ?v_33 P12) ?v_83)) (or (or P6 ?v_141) ?v_121)) (or (or ?v_153 ?v_137) ?v_144)) (or (or ?v_112 ?v_45) ?v_96)) (or (or ?v_64 ?v_156) ?v_113)) (or (or ?v_74 ?v_129) ?v_17)) (or (or ?v_36 ?v_106) ?v_65)) (or (or P17 ?v_25) P3)) (or (or ?v_93 P1) ?v_83)) (or (or ?v_101 P15) ?v_87)) (or (or ?v_136 ?v_115) ?v_97)) (or (or ?v_10 ?v_85) ?v_144)) (or (or ?v_132 ?v_4) P19)) (or (or ?v_23 ?v_117) ?v_4)) (or (or P5 ?v_60) ?v_96)) (or (or ?v_124 ?v_26) ?v_154)) (or (or ?v_157 P14) P2)) (or (or ?v_104 ?v_94) ?v_79)) (or (or ?v_6 P13) ?v_25)) (or (or ?v_138 P10) ?v_135)) (or (or ?v_4 ?v_83) ?v_34)) (or (or P6 ?v_74) ?v_157)) (or (or ?v_77 ?v_88) ?v_104)) (or (or ?v_2 ?v_21) ?v_12)) (or (or ?v_45 ?v_82) ?v_93)) (or (or ?v_21 ?v_153) ?v_54)) (or (or ?v_48 ?v_40) ?v_47)) (or (or P7 ?v_81) ?v_68)) (or (or ?v_42 ?v_88) ?v_146)) (or (or ?v_19 ?v_125) ?v_22)) (or (or ?v_88 ?v_147) ?v_38)) (or (or P2 ?v_39) P21)) (or (or ?v_28 ?v_97) ?v_122)) (or (or ?v_89 ?v_41) ?v_31)) (or (or ?v_2 P15) ?v_147)) (or (or ?v_19 ?v_17) P0)) (or (or P15 ?v_50) ?v_105)) (or (or ?v_152 ?v_132) ?v_96)) (or (or ?v_142 ?v_157) ?v_141)) (or (or ?v_74 P5) ?v_5)) (or (or ?v_100 ?v_131) ?v_87)) (or (or P21 ?v_90) ?v_109)) (or (or ?v_77 ?v_89) ?v_137)) (or (or ?v_151 ?v_26) ?v_39)) (or (or P17 P17) P24)) (or (or ?v_74 ?v_149) ?v_91)) (or (or ?v_140 ?v_131) ?v_124)) (or (or ?v_114 ?v_125) P24)) (or (or ?v_124 ?v_75) ?v_152)) (or (or P23 P11) P24)) (or (or ?v_92 ?v_53) ?v_63)) (or (or P27 ?v_27) ?v_90)) (or (or ?v_11 ?v_48) ?v_63)) (or (or P21 ?v_144) ?v_39)) (or (or P5 ?v_125) ?v_54)) (or (or ?v_83 ?v_73) ?v_138)) (or (or ?v_5 ?v_68) ?v_65)) (or (or ?v_121 ?v_46) ?v_91)) (or (or ?v_90 ?v_126) ?v_117)) (or (or ?v_4 P10) ?v_43)) (or (or ?v_118 ?v_6) ?v_27)) (or (or ?v_142 P19) ?v_39)) (or (or ?v_0 ?v_122) ?v_1)) (or (or ?v_63 P10) ?v_45)) (or (or ?v_117 ?v_119) ?v_122)) (or (or P14 ?v_11) ?v_109)) (or (or ?v_84 ?v_55) P28)) (or (or ?v_123 P27) ?v_156)) (or (or P24 ?v_82) ?v_49)) (or (or ?v_133 ?v_110) ?v_144)) (or (or ?v_155 ?v_87) ?v_24)) (or (or ?v_55 ?v_82) P3)) (or (or ?v_67 ?v_70) ?v_157)) (or (or P2 ?v_154) P28)) (or (or ?v_23 ?v_149) ?v_12)) (or (or ?v_138 ?v_69) P27)) (or (or ?v_44 ?v_137) P15)) (or (or ?v_95 ?v_131) ?v_106)) (or (or ?v_43 ?v_7) ?v_45)) (or (or P28 ?v_127) ?v_113)) (or (or ?v_102 ?v_149) ?v_123)) (or (or P14 ?v_29) ?v_93)) (or (or ?v_126 ?v_29) ?v_95)) (or (or ?v_46 ?v_75) ?v_83)) (or (or ?v_11 ?v_4) ?v_119)))))))))))))))))))))))))))
(check-sat)
(exit)
